CPXPARAM_TimeLimit                               7200
CPXPARAM_Read_DataCheck                          1
CPXPARAM_Output_IntSolFilePrefix                 "solucoes/t_sol_ini_ID000M003J005_ZintTrue_manne_ub1/sol"
Tried aggregator 1 time.
Reduced MIP has 75 rows, 46 columns, and 210 nonzeros.
Reduced MIP has 30 binaries, 0 generals, 0 SOSs, and 0 indicators.
Presolve time = 0.00 sec. (0.08 ticks)
Found incumbent of value 69.000000 after 0.00 sec. (0.31 ticks)
Probing time = 0.00 sec. (0.01 ticks)
Tried aggregator 1 time.
Reduced MIP has 75 rows, 46 columns, and 210 nonzeros.
Reduced MIP has 30 binaries, 0 generals, 0 SOSs, and 0 indicators.
Presolve time = 0.00 sec. (0.10 ticks)
Probing time = 0.00 sec. (0.01 ticks)
MIP emphasis: balance optimality and feasibility.
MIP search method: dynamic search.
Parallel mode: deterministic, using up to 8 threads.
Root relaxation solution time = 0.00 sec. (0.11 ticks)

        Nodes                                         Cuts/
   Node  Left     Objective  IInf  Best Integer    Best Bound    ItCnt     Gap

*     0+    0                           69.0000       23.0000            66.67%
New incumbent written to file 'solucoes/t_sol_ini_ID000M003J005_ZintTrue_manne_ub1/sol-00001.sol'.
      0     0       23.0000    11       69.0000       23.0000       22   66.67%
      0     0       29.0000     6       69.0000      Cuts: 14       34   57.97%
*     0+    0                           38.0000       29.0000            23.68%
New incumbent written to file 'solucoes/t_sol_ini_ID000M003J005_ZintTrue_manne_ub1/sol-00002.sol'.
      0     0       29.0000     7       38.0000      Cuts: 28       56   23.68%
*     0+    0                           37.0000       29.0000            21.62%
New incumbent written to file 'solucoes/t_sol_ini_ID000M003J005_ZintTrue_manne_ub1/sol-00003.sol'.
      0     0       29.0629    10       37.0000      Cuts: 21       80   21.45%
*     0+    0                           33.0000       29.0629            11.93%
New incumbent written to file 'solucoes/t_sol_ini_ID000M003J005_ZintTrue_manne_ub1/sol-00004.sol'.
      0     0       29.4000     5       33.0000      Cuts: 26       99   10.91%
      0     0       29.4000     4       33.0000      Cuts: 10      107   10.91%
      0     0        cutoff             33.0000       33.0000      107    0.00%
Elapsed time = 0.01 sec. (4.24 ticks, tree = 0.01 MB, solutions = 4)

Implied bound cuts applied:  5
Flow cuts applied:  2
Mixed integer rounding cuts applied:  9

Root node processing (before b&c):
  Real time             =    0.01 sec. (4.24 ticks)
Parallel b&c, 8 threads:
  Real time             =    0.00 sec. (0.00 ticks)
  Sync time (average)   =    0.00 sec.
  Wait time (average)   =    0.00 sec.
                          ------------
Total (root+branch&cut) =    0.01 sec. (4.24 ticks)
